\ This file was automatically generated by Zimpl
\ set I := { 1 to 9 };
\ var x[I] binary;
\ var y binary;
\ var z binary;
\ var a;
\ var b;
\ subto c1: x[1]^2 == x[1]^1 + x[1]^0;
\ subto c2: 2 * x[1] * 3 * x[2] * 5 * x[3] <= 77;
\ subto c3: y * z == y^2 * z^3 * 4;
\ subto c4: sum <i> in I : i*x[i]^i == 8;
\ subto c5: (y + 5) * (z + 2) == 3;
\ subto c6: (4/2 * x[1] + 2/3 * x[2])^2 == 9;
\ subto c7: log(a) == 5;
\ subto c8: sqrt(a) == 2;
\ subto c9: exp(a) == 3;
\ subto c10: ln(a) <= 7;
\ subto c11: sin(a) <= 8;
\ subto c12: cos(a) <= 9;
\ subto c13: tan(a) >= 2;
\ subto c14: abs(a) >= 6;
\ subto c15: sgn(a) == z;
\ subto c16: pow(a, 2/3) >= 7;
\ subto c17: sgnpow(a, 12^2) <= 200;
\ subto c18: 16 * log(sqrt(exp(ln(sin(cos(tan(abs(sgn(pow(sgnpow(a, -2), -3)))))))))) == 99;
\ subto c19: (2-exp(3*a-5))^2 == b;
\Problem name: minlp.zpl
Minimize
 Objective: 
Subject to
 c1_1:
  -1 x#1 +1 x#1^2 = 1
 c2_1:
  +30 x#1 * x#2 * x#3 <= 77
 c3_1:
  +1 y * z -4 y^2 * z^3 = 0
 c4_1:
  + x#1 +2 x#2^2 +3 x#3^3 +4 x#4^4 +5 x#5^5 +6 x#6^6
  +7 x#7^7 +8 x#8^8 +9 x#9^9 = 8
 c5_1:
  +2 y +5 z +1 y * z = -7
 c6_1:
  +4 x#1^2 +2.66666666666667 x#1 * x#2 +0.444444444444444 x#2^2 = 9
 c7_1_a_0:
  - __c7_1_t_0@d + a = 0
 c7_1_b_1:
  -1 __c7_1_r_1@e + log(__c7_1_t_0@d)  = 0
 c7_1:
  + __c7_1_r_1@e = 5
 c8_1_a_2:
  - __c8_1_t_2@f + a = 0
 c8_1_b_3:
  -1 __c8_1_r_3@10 + sqrt(__c8_1_t_2@f)  = 0
 c8_1:
  + __c8_1_r_3@10 = 2
 c9_1_a_4:
  - __c9_1_t_4@11 + a = 0
 c9_1_b_5:
  -1 __c9_1_r_5@12 + exp(__c9_1_t_4@11)  = 0
 c9_1:
  + __c9_1_r_5@12 = 3
 c10_1_a_6:
  - __c10_1_t_6@13 + a = 0
 c10_1_b_7:
  -1 __c10_1_r_7@14 + ln(__c10_1_t_6@13)  = 0
 c10_1:
  + __c10_1_r_7@14 <= 7
 c11_1_a_8:
  - __c11_1_t_8@15 + a = 0
 c11_1_b_9:
  -1 __c11_1_r_9@16 + sin(__c11_1_t_8@15)  = 0
 c11_1:
  + __c11_1_r_9@16 <= 8
 c12_1_a_10:
  - __c12_1_t_10@17 + a = 0
 c12_1_b_11:
  -1 __c12_1_r_11@18 + cos(__c12_1_t_10@17)  = 0
 c12_1:
  + __c12_1_r_11@18 <= 9
 c13_1_a_12:
  - __c13_1_t_12@19 + a = 0
 c13_1_b_13:
  -1 __c13_1_r_13@1a + tan(__c13_1_t_12@19)  = 0
 c13_1:
  + __c13_1_r_13@1a >= 2
 c14_1_a_14:
  - __c14_1_t_14@1b + a = 0
 c14_1_b_15:
  -1 __c14_1_r_15@1c + abs(__c14_1_t_14@1b)  = 0
 c14_1:
  + __c14_1_r_15@1c >= 6
 c15_1_a_16:
  - __c15_1_t_16@1d + a = 0
 c15_1_b_17:
  -1 __c15_1_r_17@1e + sgn(__c15_1_t_16@1d)  = 0
 c15_1:
  - z + __c15_1_r_17@1e = 0
 c16_1_a_18:
  - __c16_1_t_18@1f + a = 0
 c16_1_b_19:
  -1 __c16_1_r_19@20 + pow(__c16_1_t_18@1f ,0.666666666666667)  = 0
 c16_1:
  + __c16_1_r_19@20 >= 7
 c17_1_a_20:
  - __c17_1_t_20@21 + a = 0
 c17_1_b_21:
  -1 __c17_1_r_21@22 + sgnpow(__c17_1_t_20@21 ,144)  = 0
 c17_1:
  + __c17_1_r_21@22 <= 200
 c18_1_a_22:
  - __c18_1_t_22@23 + a = 0
 c18_1_b_23:
  -1 __c18_1_r_23@24 + sgnpow(__c18_1_t_22@23 ,-2)  = 0
 c18_1_a_24:
  - __c18_1_t_24@25 + __c18_1_r_23@24 = 0
 c18_1_b_25:
  -1 __c18_1_r_25@26 + pow(__c18_1_t_24@25 ,-3)  = 0
 c18_1_a_26:
  - __c18_1_t_26@27 + __c18_1_r_25@26 = 0
 c18_1_b_27:
  -1 __c18_1_r_27@28 + sgn(__c18_1_t_26@27)  = 0
 c18_1_a_28:
  - __c18_1_t_28@29 + __c18_1_r_27@28 = 0
 c18_1_b_29:
  -1 __c18_1_r_29@2a + abs(__c18_1_t_28@29)  = 0
 c18_1_a_30:
  - __c18_1_t_30@2b + __c18_1_r_29@2a = 0
 c18_1_b_31:
  -1 __c18_1_r_31@2c + tan(__c18_1_t_30@2b)  = 0
 c18_1_a_32:
  - __c18_1_t_32@2d + __c18_1_r_31@2c = 0
 c18_1_b_33:
  -1 __c18_1_r_33@2e + cos(__c18_1_t_32@2d)  = 0
 c18_1_a_34:
  - __c18_1_t_34@2f + __c18_1_r_33@2e = 0
 c18_1_b_35:
  -1 __c18_1_r_35@30 + sin(__c18_1_t_34@2f)  = 0
 c18_1_a_36:
  - __c18_1_t_36@31 + __c18_1_r_35@30 = 0
 c18_1_b_37:
  -1 __c18_1_r_37@32 + ln(__c18_1_t_36@31)  = 0
 c18_1_a_38:
  - __c18_1_t_38@33 + __c18_1_r_37@32 = 0
 c18_1_b_39:
  -1 __c18_1_r_39@34 + exp(__c18_1_t_38@33)  = 0
 c18_1_a_40:
  - __c18_1_t_40@35 + __c18_1_r_39@34 = 0
 c18_1_b_41:
  -1 __c18_1_r_41@36 + sqrt(__c18_1_t_40@35)  = 0
 c18_1_a_42:
  - __c18_1_t_42@37 + __c18_1_r_41@36 = 0
 c18_1_b_43:
  -1 __c18_1_r_43@38 + log(__c18_1_t_42@37)  = 0
 c18_1:
  +16 __c18_1_r_43@38 = 99
 c19_1_a_44:
  - __c19_1_t_44@39 +3 a = 5
 c19_1_b_45:
  -1 __c19_1_r_45@3a + exp(__c19_1_t_44@39)  = 0
 c19_1:
  -4 __c19_1_r_45@3a -1 b +1 __c19_1_r_45@3a^2 = -4
Bounds
 0 <= x#1 <= 1
 0 <= x#2 <= 1
 0 <= x#3 <= 1
 0 <= x#4 <= 1
 0 <= x#5 <= 1
 0 <= x#6 <= 1
 0 <= x#7 <= 1
 0 <= x#8 <= 1
 0 <= x#9 <= 1
 0 <= y <= 1
 0 <= z <= 1
 0 <= a <= +inf
 0 <= b <= +inf
 0 <= __c7_1_t_0@d <= +inf
 -inf <= __c7_1_r_1@e <= +inf
 0 <= __c8_1_t_2@f <= +inf
 0 <= __c8_1_r_3@10 <= +inf
 -inf <= __c9_1_t_4@11 <= +inf
 -inf <= __c9_1_r_5@12 <= +inf
 0 <= __c10_1_t_6@13 <= +inf
 -inf <= __c10_1_r_7@14 <= +inf
 -inf <= __c11_1_t_8@15 <= +inf
 -1 <= __c11_1_r_9@16 <= 1
 -inf <= __c12_1_t_10@17 <= +inf
 -1 <= __c12_1_r_11@18 <= 1
 -inf <= __c13_1_t_12@19 <= +inf
 -inf <= __c13_1_r_13@1a <= +inf
 -inf <= __c14_1_t_14@1b <= +inf
 0 <= __c14_1_r_15@1c <= +inf
 -inf <= __c15_1_t_16@1d <= +inf
 -1 <= __c15_1_r_17@1e <= 1
 -inf <= __c16_1_t_18@1f <= +inf
 -inf <= __c16_1_r_19@20 <= +inf
 -inf <= __c17_1_t_20@21 <= +inf
 -inf <= __c17_1_r_21@22 <= +inf
 -inf <= __c18_1_t_22@23 <= +inf
 -inf <= __c18_1_r_23@24 <= +inf
 -inf <= __c18_1_t_24@25 <= +inf
 -inf <= __c18_1_r_25@26 <= +inf
 -inf <= __c18_1_t_26@27 <= +inf
 -1 <= __c18_1_r_27@28 <= 1
 -inf <= __c18_1_t_28@29 <= +inf
 0 <= __c18_1_r_29@2a <= +inf
 -inf <= __c18_1_t_30@2b <= +inf
 -inf <= __c18_1_r_31@2c <= +inf
 -inf <= __c18_1_t_32@2d <= +inf
 -1 <= __c18_1_r_33@2e <= 1
 -inf <= __c18_1_t_34@2f <= +inf
 -1 <= __c18_1_r_35@30 <= 1
 0 <= __c18_1_t_36@31 <= +inf
 -inf <= __c18_1_r_37@32 <= +inf
 -inf <= __c18_1_t_38@33 <= +inf
 -inf <= __c18_1_r_39@34 <= +inf
 0 <= __c18_1_t_40@35 <= +inf
 0 <= __c18_1_r_41@36 <= +inf
 0 <= __c18_1_t_42@37 <= +inf
 -inf <= __c18_1_r_43@38 <= +inf
 -inf <= __c19_1_t_44@39 <= +inf
 -inf <= __c19_1_r_45@3a <= +inf
General
 x#1
 x#2
 x#3
 x#4
 x#5
 x#6
 x#7
 x#8
 x#9
 y
 z
 __c15_1_r_17@1e
 __c18_1_r_27@28
End
